0 1337
1 1311
2 1288
3 1271
4 1253
5 1231
6 1205
7 1192
8 1176
9 1169
10 1159
11 1148
12 1139
13 1126
14 1122
15 1119
16 1114
17 1102
18 1092
19 1080
20 1069
21 1067
22 1063
23 1057
24 1050
25 1046
26 1041
27 1036
28 1035
29 1030
30 1024
31 1017
32 1011
33 1006
34 1003
35 998
36 992
37 987
38 981
39 979
40 977
41 973
42 967
43 963
44 957
45 951
46 944
47 935
48 928
49 927
50 924
51 920
52 914
53 909
54 906
55 904
56 895
57 892
58 888
59 882
60 879
61 873
62 867
63 862
64 858
65 854
66 851
67 843
68 835
69 827
70 823
71 820
72 816
73 812
74 804
75 799
76 794
77 787
78 782
79 775
80 769
81 764
82 760
83 755
84 751
85 743
86 738
87 732
88 731
89 728
90 724
91 722
92 717
93 717
94 716
95 712
96 708
97 705
98 701
99 696
100 693
101 685
102 682
103 679
104 674
105 672
106 670
107 665
108 664
109 659
110 656
111 654
112 653
113 650
114 644
115 642
116 641
117 635
118 634
119 630
120 627
121 624
122 621
123 620
124 616
125 614
126 611
127 609
128 605
129 603
130 599
131 599
132 596
133 596
134 594
135 593
136 590
137 589
138 588
139 585
140 584
141 582
142 577
143 576
144 574
145 573
146 570
147 568
148 567
149 565
150 563
151 562
152 560
153 558
154 557
155 554
156 551
157 548
158 546
159 543
160 541
161 539
162 538
163 537
164 536
165 534
166 532
167 530
168 529
169 528
170 527
171 526
172 525
173 523
174 521
175 519
176 518
177 516
178 515
179 513
180 510
181 508
182 506
183 505
184 503
185 502
186 501
187 500
188 499
189 497
190 497
191 495
192 493
193 492
194 491
195 490
196 489
197 488
198 487
199 485
200 484
201 482
202 482
203 482
204 480
205 480
206 478
207 478
208 477
209 477
210 476
211 475
212 474
213 474
214 473
215 473
216 472
217 472
218 471
219 470
220 469
221 469
222 468
223 468
224 468
225 467
226 467
227 466
228 466
229 465
230 465
231 464
232 464
233 463
234 463
235 462
236 462
237 462
238 462
239 461
240 461
241 461
242 460
243 460
244 460
245 460
246 460
247 460
248 460
249 459
